NAME : single
TYPE : ATSP
DIMENSION : 17
EDGE_WEIGHT_TYPE : EXPLICIT
EDGE_WEIGHT_FORMAT : FULL_MATRIX
EDGE_WEIGHT_SECTION
0 50417 50263 50419 50428 50231 50204 50260 278 361 227 263 553 283 407 366 380 
0 0 50000 164 120 50000 50000 50000 50000 50000 50000 50000 50000 50000 50000 50000 50000 
0 50000 0 50000 50000 50000 50000 77 50000 50000 50000 50000 50000 50000 50000 50000 50000 
0 164 50000 0 207 50000 50000 50000 50000 50000 50000 50000 1738 50000 50000 50000 50000 
0 120 50000 207 0 50000 50000 50000 50000 50000 50000 50000 50000 50000 50000 50000 50000 
0 50000 50000 50000 50000 0 285 50000 50000 50000 50000 50000 50000 50000 50000 50000 50000 
0 50000 50000 50000 50000 285 0 290 50000 50000 50000 50000 50000 50000 50000 50000 50000 
0 50000 77 50000 50000 50000 290 0 50000 50000 50000 50000 50000 50000 50000 50000 50000 
0 50000 50000 50000 50000 50000 50000 50000 0 92 100 77 353 181 160 296 278 
0 50000 50000 50000 50000 50000 50000 50000 92 0 144 111 426 205 84 268 242 
0 50000 50000 50000 50000 50000 50000 50000 100 144 0 59 267 83 163 249 274 
0 50000 50000 50000 50000 50000 50000 50000 77 111 59 0 323 127 166 220 245 
0 50000 50000 1738 50000 50000 50000 50000 353 426 267 323 0 248 431 424 406 
0 50000 50000 50000 50000 50000 50000 50000 181 205 83 127 248 0 195 276 297 
0 50000 50000 50000 50000 50000 50000 50000 160 84 163 166 431 195 0 212 187 
0 50000 50000 50000 50000 50000 50000 50000 296 268 249 220 424 276 212 0 98 
0 50000 50000 50000 50000 50000 50000 50000 278 242 274 245 406 297 187 98 0 
EOF